(set-info :source |
 Generated by Alive 0.1
 More info in N. P. Lopes, D. Menendez, S. Nagarakatte, J. Regehr.
 Provably Correct Peephole Optimizations with Alive. In PLDI'15.
|)

(set-info :status unknown)
(declare-fun C2 () (_ BitVec 49))
(declare-fun C1 () (_ BitVec 49))
(assert
 (let (($x484717 (bvsge ((_ zero_extend 1) (bvadd C1 C2)) (_ bv49 50))))
 (let (($x335363 (bvult C2 (_ bv49 49))))
 (let (($x135059 (bvult C1 (_ bv49 49))))
 (and $x135059 $x335363 $x484717 false)))))
(check-sat)
